c Random generated cnf formula, satisfiable: false
p cnf 10 50
-10 8 -6 0
-10 -7 4 0
6 -8 -10 0
7 10 -3 0
-6 5 2 0
3 1 -5 0
9 -8 -7 0
3 -10 4 0
-7 3 8 0
-4 -3 8 0
-6 -10 8 0
-3 -7 4 0
-5 7 1 0
-4 -5 6 0
-3 2 5 0
3 8 -6 0
1 5 2 0
9 2 -4 0
1 7 -9 0
10 -9 -4 0
4 -5 1 0
-9 1 10 0
2 7 -8 0
-1 3 -8 0
9 -7 -6 0
-2 9 10 0
4 -2 7 0
-3 10 -9 0
5 -1 -10 0
3 9 -8 0
9 -5 -6 0
-1 6 -8 0
-1 4 6 0
-5 -10 -6 0
-2 -6 -4 0
6 5 1 0
2 1 -10 0
-9 -4 5 0
-8 -5 -3 0
-7 -3 1 0
1 -7 5 0
-7 -10 -4 0
10 -7 -5 0
4 8 -5 0
-1 -8 9 0
9 -8 1 0
-3 6 9 0
-8 -9 -5 0
-5 6 -3 0
8 6 -5 0
